\ENCODING=ISO-8859-1
\Problem name: ilog.cplex

Maximize
 obj: 0.05 x1 - 0.05 x2 + 0.15 x3 - 0.15 x4 + 0.4 x5 - 0.4 x6 + 0.1 x7 - 0.1 x8
      + 0.3 x9 - 0.3 x10
Subject To
 c1: - x1 + x2  = -32.2622558476542
 c2: - x3 + x4  = 29.5953924409225
 c3: - x5 + x6  = 115.802369335236
 c4: - x7 + x8  = -105.185783988585
 c5: - x9 + x10  = 37.6506716929079
End
